(declare-const c_0 Real)
(declare-const c_1 Real)
(declare-const c_2 Real)
(declare-const c_3 Real)
(declare-const c_4 Real)
(declare-const c_5 Real)
(declare-const c_6 Real)
(declare-const c_7 Real)
(declare-const c_8 Real)
(declare-const c_9 Real)
(declare-const c_10 Real)
(declare-const c_11 Real)
(declare-const s_0 Real)
(declare-const s_1 Real)
(declare-const s_2 Real)
(declare-const s_3 Real)
(declare-const s_4 Real)
(declare-const s_5 Real)
(declare-const s_6 Real)
(declare-const s_7 Real)
(declare-const s_8 Real)
(declare-const s_9 Real)
(declare-const s_10 Real)
(declare-const s_11 Real)
(assert (forall ((q Real) (y Real) ) (=> (and (>= (+ (* 1024 1) (* 1 q ) ) 0) (>= (+ (* 1023 1) (* (- 1) q ) ) 0) (>= (+ (* 1024 1) (* 1 y ) ) 0) (>= (+ (* 1023 1) (* (- 1) y ) ) 0) ) (>= (+ (* 1 q s_1 ) (* 1 q s_2 y ) (* 1 q q s_3 ) (* 1 s_0 ) (* 1 s_4 y ) (* 1 s_5 y y ) ) 0) )))
(assert (forall ((q Real) (y Real) ) (=> (and (>= (+ (* 1024 1) (* 1 q ) ) 0) (>= (+ (* 1023 1) (* (- 1) q ) ) 0) (>= (+ (* 1024 1) (* 1 y ) ) 0) (>= (+ (* 1023 1) (* (- 1) y ) ) 0) ) (>= (+ (* 1 c_0 ) (* 1 c_1 q ) (* 1 c_2 q y ) (* 1 c_3 q q ) (* 1 c_4 y ) (* 1 c_5 y y ) ) 0) )))
(assert (forall ((q Real) (y Real) ) (=> (and (>= (+ (* (- 1) 1) (* 1 y ) ) 0) (>= (+ (* (- 1) 1) (* 1 q ) ) 0) (>= (+ (* 1024 1) (* 1 q ) ) 0) (>= (+ (* 1024 1) (* 1 y ) ) 0) (>= (+ (* 1023 1) (* (- 1) y ) ) 0) (>= (+ (* 1023 1) (* (- 1) q ) ) 0) (>= (+ (* 1 q s_1 ) (* 1 q s_2 y ) (* 1 q q s_3 ) (* 1 s_0 ) (* 1 s_4 y ) (* 1 s_5 y y ) ) 0) ) (>= (+ (* 1 q s_1 ) (* 1 q s_2 y ) (* (- 2) q s_3 ) (* (- 2) q s_3 y ) (* 1 q q s_3 ) (* 1 s_0 ) (* (- 1) s_1 ) (* (- 1) s_1 y ) (* (- 1) s_2 y ) (* (- 1) s_2 y y ) (* 1 s_3 ) (* 2 s_3 y ) (* 1 s_3 y y ) (* 1 s_4 y ) (* 1 s_5 y y ) ) 0) )))
(assert (forall ((q Real) (y Real) ) (=> (and (>= (+ (* (- 1) 1) (* 1 y ) ) 0) (>= (+ (* (- 1) 1) (* 1 q ) ) 0) (>= (+ (* 1024 1) (* 1 q ) ) 0) (>= (+ (* 1024 1) (* 1 y ) ) 0) (>= (+ (* 1023 1) (* (- 1) y ) ) 0) (>= (+ (* 1023 1) (* (- 1) q ) ) 0) (>= (+ (* 1 q s_1 ) (* 1 q s_2 y ) (* 1 q q s_3 ) (* 1 s_0 ) (* 1 s_4 y ) (* 1 s_5 y y ) ) 0) ) (>= (+ (* 1 c_0 ) (* (- 1) c_1 ) (* 1 c_1 q ) (* (- 1) c_1 y ) (* 1 c_2 q y ) (* (- 1) c_2 y ) (* (- 1) c_2 y y ) (* 1 c_3 ) (* (- 2) c_3 q ) (* (- 2) c_3 q y ) (* 1 c_3 q q ) (* 2 c_3 y ) (* 1 c_3 y y ) (* 1 c_4 y ) (* 1 c_5 y y ) ) 0) )))
(assert (forall ((q Real) (y Real) ) (=> (and (>= (+ (* (- 1) 1) (* 1 y ) ) 0) (>= (+ (* (- 1) 1) (* 1 q ) ) 0) (>= (+ (* 1024 1) (* 1 q ) ) 0) (>= (+ (* 1024 1) (* 1 y ) ) 0) (>= (+ (* 1023 1) (* (- 1) y ) ) 0) (>= (+ (* 1023 1) (* (- 1) q ) ) 0) (>= (+ (* 1 q s_1 ) (* 1 q s_2 y ) (* 1 q q s_3 ) (* 1 s_0 ) (* 1 s_4 y ) (* 1 s_5 y y ) ) 0) ) (>= (+ (* (- 1) 1) (* 1 c_1 ) (* 1 c_1 y ) (* 1 c_2 y ) (* 1 c_2 y y ) (* (- 1) c_3 ) (* 2 c_3 q ) (* 2 c_3 q y ) (* (- 2) c_3 y ) (* (- 1) c_3 y y ) ) 0) )))
(assert (forall ((q Real) (y Real) ) (=> (and (>= (* (- 1) y ) 0) (>= (+ (* (- 1) 1) (* 1 q ) ) 0) (>= (+ (* 1024 1) (* 1 q ) ) 0) (>= (+ (* 1024 1) (* 1 y ) ) 0) (>= (+ (* 1023 1) (* (- 1) y ) ) 0) (>= (+ (* 1023 1) (* (- 1) q ) ) 0) (>= (+ (* 1 q s_1 ) (* 1 q s_2 y ) (* 1 q q s_3 ) (* 1 s_0 ) (* 1 s_4 y ) (* 1 s_5 y y ) ) 0) ) (>= (+ (* 1 q s_1 ) (* 1 q s_2 y ) (* (- 2) q s_3 ) (* 2 q s_3 y ) (* 1 q q s_3 ) (* 1 s_0 ) (* (- 1) s_1 ) (* 1 s_1 y ) (* (- 1) s_2 y ) (* 1 s_2 y y ) (* 1 s_3 ) (* (- 2) s_3 y ) (* 1 s_3 y y ) (* 1 s_4 y ) (* 1 s_5 y y ) ) 0) )))
(assert (forall ((q Real) (y Real) ) (=> (and (>= (* (- 1) y ) 0) (>= (+ (* (- 1) 1) (* 1 q ) ) 0) (>= (+ (* 1024 1) (* 1 q ) ) 0) (>= (+ (* 1024 1) (* 1 y ) ) 0) (>= (+ (* 1023 1) (* (- 1) y ) ) 0) (>= (+ (* 1023 1) (* (- 1) q ) ) 0) (>= (+ (* 1 q s_1 ) (* 1 q s_2 y ) (* 1 q q s_3 ) (* 1 s_0 ) (* 1 s_4 y ) (* 1 s_5 y y ) ) 0) ) (>= (+ (* 1 c_0 ) (* (- 1) c_1 ) (* 1 c_1 q ) (* 1 c_1 y ) (* 1 c_2 q y ) (* (- 1) c_2 y ) (* 1 c_2 y y ) (* 1 c_3 ) (* (- 2) c_3 q ) (* 2 c_3 q y ) (* 1 c_3 q q ) (* (- 2) c_3 y ) (* 1 c_3 y y ) (* 1 c_4 y ) (* 1 c_5 y y ) ) 0) )))
(assert (forall ((q Real) (y Real) ) (=> (and (>= (* (- 1) y ) 0) (>= (+ (* (- 1) 1) (* 1 q ) ) 0) (>= (+ (* 1024 1) (* 1 q ) ) 0) (>= (+ (* 1024 1) (* 1 y ) ) 0) (>= (+ (* 1023 1) (* (- 1) y ) ) 0) (>= (+ (* 1023 1) (* (- 1) q ) ) 0) (>= (+ (* 1 q s_1 ) (* 1 q s_2 y ) (* 1 q q s_3 ) (* 1 s_0 ) (* 1 s_4 y ) (* 1 s_5 y y ) ) 0) ) (>= (+ (* (- 1) 1) (* 1 c_1 ) (* (- 1) c_1 y ) (* 1 c_2 y ) (* (- 1) c_2 y y ) (* (- 1) c_3 ) (* 2 c_3 q ) (* (- 2) c_3 q y ) (* 2 c_3 y ) (* (- 1) c_3 y y ) ) 0) )))
(assert (forall ((q Real) (y Real) ) (=> (and (>= (* (- 1) q ) 0) (>= (+ (* 1024 1) (* 1 q ) ) 0) (>= (+ (* 1024 1) (* 1 y ) ) 0) (>= (+ (* 1023 1) (* (- 1) y ) ) 0) (>= (+ (* 1023 1) (* (- 1) q ) ) 0) (>= (+ (* 1 q s_1 ) (* 1 q s_2 y ) (* 1 q q s_3 ) (* 1 s_0 ) (* 1 s_4 y ) (* 1 s_5 y y ) ) 0) ) (>= (+ (* 1 q s_7 ) (* 1 q s_8 y ) (* 1 q q s_9 ) (* 1 s_10 y ) (* 1 s_11 y y ) (* 1 s_6 ) ) 0) )))
(assert (forall ((q Real) (y Real) ) (=> (and (>= (* (- 1) q ) 0) (>= (+ (* 1024 1) (* 1 q ) ) 0) (>= (+ (* 1024 1) (* 1 y ) ) 0) (>= (+ (* 1023 1) (* (- 1) y ) ) 0) (>= (+ (* 1023 1) (* (- 1) q ) ) 0) (>= (+ (* 1 q s_1 ) (* 1 q s_2 y ) (* 1 q q s_3 ) (* 1 s_0 ) (* 1 s_4 y ) (* 1 s_5 y y ) ) 0) ) (>= (+ (* 1 c_10 y ) (* 1 c_11 y y ) (* 1 c_6 ) (* 1 c_7 q ) (* 1 c_8 q y ) (* 1 c_9 q q ) ) 0) )))

(check-sat)
(get-model)
